set VV := 0 1 2 3 4 5 6 7 8 9 10 11 12 13 14 15 16 ;
set VS := 0 1 2 3 4 5 6 7 8 9 10 11 12 13 14 15 16 17 18 19 20 21 22 23 24 25 26 27 28 29 30 31 32 33 34 35 36 37 ;
param cv := 
0 18
1 16
2 11
3 11
4 23
5 10
6 16
7 10
8 21
9 20
10 14
11 24
12 24
13 21
14 22
15 25
16 19
;
param cs := 
0 27
1 38
2 22
3 22
4 27
5 37
6 21
7 31
8 25
9 30
10 20
11 36
12 34
13 35
14 22
15 26
16 36
17 34
18 33
19 31
20 34
21 23
22 24
23 38
24 24
25 25
26 33
27 31
28 25
29 20
30 34
31 22
32 29
33 24
34 27
35 31
36 31
37 35
;
param bv:	 0 1 2 3 4 5 6 7 8 9 10 11 12 13 14 15 16 := 
		0 0 0 0 0 0 0 0 24 0 0 0 0 0 0 0 0 0 
		1 0 0 0 0 14 0 0 0 0 0 18 0 19 0 0 0 0 
		2 0 0 0 13 18 23 22 0 0 0 0 0 0 0 15 0 0 
		3 0 0 0 0 21 0 0 0 11 0 0 12 0 0 0 17 0 
		4 0 0 0 0 0 0 12 0 0 0 0 0 0 0 0 0 0 
		5 0 0 0 0 0 0 0 22 0 0 0 0 0 0 0 0 19 
		6 0 0 0 0 0 0 0 0 17 0 0 0 0 0 0 15 0 
		7 0 0 0 0 0 0 0 0 21 12 0 0 0 0 0 0 0 
		8 0 0 0 0 0 0 0 0 0 0 0 0 0 13 0 0 0 
		9 0 0 0 0 0 0 0 0 0 0 0 0 0 0 0 0 0 
		10 0 0 0 0 0 0 0 0 0 0 0 0 10 0 0 0 0 
		11 0 0 0 0 0 0 0 0 0 0 0 0 25 0 15 0 0 
		12 0 0 0 0 0 0 0 0 0 0 0 0 0 0 0 0 0 
		13 0 0 0 0 0 0 0 0 0 0 0 0 0 0 0 0 0 
		14 0 0 0 0 0 0 0 0 0 0 0 0 0 0 0 0 0 
		15 0 0 0 0 0 0 0 0 0 0 0 0 0 0 0 0 0 
		16 0 0 0 0 0 0 0 0 0 0 0 0 0 0 0 0 0 
;
param bs:	 0 1 2 3 4 5 6 7 8 9 10 11 12 13 14 15 16 17 18 19 20 21 22 23 24 25 26 27 28 29 30 31 32 33 34 35 36 37 := 
		0 0 26 0 34 0 0 0 0 0 0 0 0 0 0 0 0 26 0 0 0 0 33 0 0 0 0 0 0 0 0 0 0 0 0 0 0 0 0 
		1 26 0 0 0 21 0 0 0 0 32 0 0 0 35 0 0 0 0 0 0 0 0 0 35 0 0 31 0 0 0 0 0 0 0 0 0 0 0 
		2 0 0 0 29 0 0 0 0 0 0 0 0 0 0 0 0 0 0 0 0 0 0 0 0 0 24 0 0 0 0 0 0 0 0 0 0 0 0 
		3 34 0 29 0 38 22 0 0 0 23 0 0 0 0 0 0 0 0 0 0 0 0 0 30 0 0 0 0 0 0 0 0 0 0 0 0 0 0 
		4 0 21 0 38 0 0 0 24 0 0 0 0 0 23 0 0 0 0 0 0 0 0 0 0 0 0 0 0 0 0 0 0 0 24 0 0 0 0 
		5 0 0 0 22 0 0 0 29 0 0 0 0 0 0 0 30 0 0 0 0 0 0 0 0 0 0 0 0 0 23 0 0 0 0 0 0 0 0 
		6 0 0 0 0 0 0 0 0 0 0 0 0 0 36 0 0 0 0 0 0 0 0 0 0 0 0 0 0 31 0 0 0 38 0 0 0 0 0 
		7 0 0 0 0 24 29 0 0 0 0 0 0 0 0 0 0 0 28 0 0 0 0 0 0 0 0 0 0 0 0 0 0 0 0 0 0 0 0 
		8 0 0 0 0 0 0 0 0 0 36 0 0 0 0 0 0 0 0 0 0 0 0 0 0 0 0 0 0 0 0 0 0 0 0 0 0 0 0 
		9 0 32 0 23 0 0 0 0 36 0 0 0 37 0 0 0 25 23 0 26 0 0 0 0 0 40 0 0 0 37 0 0 34 0 0 0 0 0 
		10 0 0 0 0 0 0 0 0 0 0 0 0 0 0 0 0 0 0 0 0 0 0 0 0 0 0 0 32 0 0 0 0 0 31 0 21 0 0 
		11 0 0 0 0 0 0 0 0 0 0 0 0 0 0 20 0 0 0 0 0 0 0 0 0 0 0 0 0 0 0 0 0 27 0 0 0 0 0 
		12 0 0 0 0 0 0 0 0 0 37 0 0 0 0 0 0 24 0 0 0 0 0 0 0 0 0 0 39 0 0 0 0 0 0 36 0 0 0 
		13 0 35 0 0 23 0 36 0 0 0 0 0 0 0 0 0 0 0 0 0 0 0 0 0 0 0 0 0 0 0 0 0 34 0 20 0 0 0 
		14 0 0 0 0 0 0 0 0 0 0 0 20 0 0 0 0 39 0 0 0 0 0 0 0 0 0 0 0 0 0 0 0 0 27 0 0 0 0 
		15 0 0 0 0 0 30 0 0 0 0 0 0 0 0 0 0 0 0 36 0 0 0 32 0 0 0 0 0 0 0 0 0 0 0 0 0 0 0 
		16 26 0 0 0 0 0 0 0 0 25 0 0 24 0 39 0 0 0 0 0 0 0 0 21 0 38 0 0 0 0 0 0 0 0 0 0 0 40 
		17 0 0 0 0 0 0 0 28 0 23 0 0 0 0 0 0 0 0 36 0 0 0 0 0 0 0 0 0 0 31 40 0 27 0 0 0 0 0 
		18 0 0 0 0 0 0 0 0 0 0 0 0 0 0 0 36 0 36 0 0 0 0 0 0 0 0 0 0 0 0 0 0 0 0 0 0 37 0 
		19 0 0 0 0 0 0 0 0 0 26 0 0 0 0 0 0 0 0 0 0 0 0 0 0 0 0 0 0 0 0 33 0 0 31 0 0 0 0 
		20 0 0 0 0 0 0 0 0 0 0 0 0 0 0 0 0 0 0 0 0 0 0 0 0 0 0 24 33 0 26 0 0 0 0 0 0 0 22 
		21 33 0 0 0 0 0 0 0 0 0 0 0 0 0 0 0 0 0 0 0 0 0 0 0 0 0 0 0 0 23 0 31 0 0 0 0 36 0 
		22 0 0 0 0 0 0 0 0 0 0 0 0 0 0 0 32 0 0 0 0 0 0 0 0 0 0 0 0 23 0 0 0 0 0 0 30 0 0 
		23 0 35 0 30 0 0 0 0 0 0 0 0 0 0 0 0 21 0 0 0 0 0 0 0 0 30 0 0 0 0 0 0 0 0 0 0 0 0 
		24 0 0 0 0 0 0 0 0 0 0 0 0 0 0 0 0 0 0 0 0 0 0 0 0 0 0 0 0 0 30 0 35 0 0 0 0 0 20 
		25 0 0 24 0 0 0 0 0 0 40 0 0 0 0 0 0 38 0 0 0 0 0 0 30 0 0 0 0 0 22 0 0 0 0 0 0 21 0 
		26 0 31 0 0 0 0 0 0 0 0 0 0 0 0 0 0 0 0 0 0 24 0 0 0 0 0 0 0 36 27 0 0 0 0 0 0 0 0 
		27 0 0 0 0 0 0 0 0 0 0 32 0 39 0 0 0 0 0 0 0 33 0 0 0 0 0 0 0 0 0 0 0 0 0 0 0 0 0 
		28 0 0 0 0 0 0 31 0 0 0 0 0 0 0 0 0 0 0 0 0 0 0 23 0 0 0 36 0 0 0 0 0 0 0 26 0 0 0 
		29 0 0 0 0 0 23 0 0 0 37 0 0 0 0 0 0 0 31 0 0 26 23 0 0 30 22 27 0 0 0 0 0 0 0 0 0 0 0 
		30 0 0 0 0 0 0 0 0 0 0 0 0 0 0 0 0 0 40 0 33 0 0 0 0 0 0 0 0 0 0 0 0 0 0 0 0 0 0 
		31 0 0 0 0 0 0 0 0 0 0 0 0 0 0 0 0 0 0 0 0 0 31 0 0 35 0 0 0 0 0 0 0 0 0 0 29 32 29 
		32 0 0 0 0 0 0 38 0 0 34 0 27 0 34 0 0 0 27 0 0 0 0 0 0 0 0 0 0 0 0 0 0 0 0 0 0 0 0 
		33 0 0 0 0 24 0 0 0 0 0 31 0 0 0 27 0 0 0 0 31 0 0 0 0 0 0 0 0 0 0 0 0 0 0 0 0 0 0 
		34 0 0 0 0 0 0 0 0 0 0 0 0 36 20 0 0 0 0 0 0 0 0 0 0 0 0 0 0 26 0 0 0 0 0 0 0 34 0 
		35 0 0 0 0 0 0 0 0 0 0 21 0 0 0 0 0 0 0 0 0 0 0 30 0 0 0 0 0 0 0 0 29 0 0 0 0 0 0 
		36 0 0 0 0 0 0 0 0 0 0 0 0 0 0 0 0 0 0 37 0 0 36 0 0 0 21 0 0 0 0 0 32 0 0 34 0 0 0 
		37 0 0 0 0 0 0 0 0 0 0 0 0 0 0 0 0 40 0 0 0 22 0 0 0 20 0 0 0 0 0 0 29 0 0 0 0 0 0 
;
